WARNING: for repeatability, setting FPU to use double precision
============================[ Problem Statistics ]=============================
|                                                                             |
|  Number of variables:          9072                                         |
|  Number of clauses:           68509                                         |
|  Parse time:                   0.01 s                                       |
|                                                                             |
c ============================[ Search Statistics ]==============================
c | Conflicts |          ORIGINAL         |          LEARNT          | Progress |
c |           |    Vars  Clauses Literals |    Limit  Clauses Lit/Cl |          |
c ===============================================================================
We had 15 decisions of which only 0 were on extended
We had 34444 decisions of which only 0 were on extended
We had 55643 decisions of which only 0 were on extended
We had 83490 decisions of which only 0 were on extended
We had 109800 decisions of which only 0.064663 were on extended
We had 132841 decisions of which only 0.298854 were on extended
We had 151056 decisions of which only 0.263478 were on extended
c Switched to VSIDS.
We had 171139 decisions of which only 0.232559 were on extended
We had 188601 decisions of which only 0.211028 were on extended
We had 203868 decisions of which only 0.195224 were on extended
We had 218403 decisions of which only 0.182232 were on extended
c Switched to LRB.
We had 232933 decisions of which only 0.171723 were on extended
We had 247287 decisions of which only 0.161755 were on extended
c Switched to VSIDS.
We had 261461 decisions of which only 0.152986 were on extended
We had 276438 decisions of which only 0.144698 were on extended
We had 290051 decisions of which only 0.137907 were on extended
We had 304516 decisions of which only 0.131356 were on extended
c Switched to LRB.
We had 319685 decisions of which only 0.125749 were on extended
We had 333142 decisions of which only 0.120669 were on extended
Window full
Continue
We had 346715 decisions of which only 0.115945 were on extended
c Switched to VSIDS.
We had 360036 decisions of which only 0.111656 were on extended
We had 372692 decisions of which only 0.107864 were on extended
We had 385427 decisions of which only 0.1043 were on extended
We had 399646 decisions of which only 0.100589 were on extended
We had 413392 decisions of which only 0.0972443 were on extended
We had 426825 decisions of which only 0.0941838 were on extended
c Switched to LRB.
We had 441236 decisions of which only 0.0922409 were on extended
We had 454866 decisions of which only 0.0894769 were on extended
We had 468059 decisions of which only 0.0869548 were on extended
Window full
Deactivate
We had 481306 decisions of which only 0.0845616 were on extended
c Switched to VSIDS.
We had 494768 decisions of which only 0.0822608 were on extended
We had 509054 decisions of which only 0.0799522 were on extended
We had 522555 decisions of which only 0.0778865 were on extended
We had 537068 decisions of which only 0.0757818 were on extended
We had 552345 decisions of which only 0.0736858 were on extended
We had 565573 decisions of which only 0.0719624 were on extended
c Switched to LRB.
We had 580093 decisions of which only 0.0703335 were on extended
We had 593382 decisions of which only 0.0687584 were on extended
We had 606487 decisions of which only 0.0672727 were on extended
We had 619221 decisions of which only 0.0658892 were on extended
We had 631889 decisions of which only 0.0645683 were on extended
We had 645289 decisions of which only 0.0632275 were on extended
We had 657942 decisions of which only 0.0620115 were on extended
We had 670995 decisions of which only 0.0608052 were on extended
c Switched to VSIDS.
We had 684397 decisions of which only 0.0596145 were on extended
We had 697183 decisions of which only 0.0585212 were on extended
We had 710944 decisions of which only 0.0573885 were on extended
We had 726243 decisions of which only 0.0561795 were on extended
We had 740219 decisions of which only 0.0551188 were on extended
c Switched to LRB.
We had 754145 decisions of which only 0.054101 were on extended
We had 767295 decisions of which only 0.0531738 were on extended
We had 780790 decisions of which only 0.0522548 were on extended
We had 794256 decisions of which only 0.0513688 were on extended
We had 808419 decisions of which only 0.0504689 were on extended
We had 821935 decisions of which only 0.049639 were on extended
We had 835365 decisions of which only 0.0488409 were on extended
c Switched to VSIDS.
We had 848326 decisions of which only 0.0480947 were on extended
We had 861779 decisions of which only 0.0473439 were on extended
We had 875178 decisions of which only 0.0466191 were on extended
We had 888469 decisions of which only 0.0459217 were on extended
We had 902413 decisions of which only 0.0452121 were on extended
We had 916246 decisions of which only 0.0445295 were on extended
We had 929618 decisions of which only 0.043889 were on extended
We had 942772 decisions of which only 0.0432766 were on extended
c Switched to LRB.
We had 956668 decisions of which only 0.0429616 were on extended
We had 969260 decisions of which only 0.0424035 were on extended
We had 982536 decisions of which only 0.0418305 were on extended
We had 995071 decisions of which only 0.0413036 were on extended
We had 1008254 decisions of which only 0.0407635 were on extended
We had 1022713 decisions of which only 0.0401872 were on extended
We had 1037024 decisions of which only 0.0396326 were on extended
We had 1050237 decisions of which only 0.039134 were on extended
We had 1063560 decisions of which only 0.0386438 were on extended
c Switched to VSIDS.
We had 1076759 decisions of which only 0.0381701 were on extended
We had 1090031 decisions of which only 0.0377053 were on extended
We had 1103626 decisions of which only 0.0372409 were on extended
We had 1116849 decisions of which only 0.0368 were on extended
We had 1130432 decisions of which only 0.0363578 were on extended
We had 1144041 decisions of which only 0.0359253 were on extended
We had 1156937 decisions of which only 0.0355248 were on extended
We had 1169528 decisions of which only 0.0351424 were on extended
We had 1182112 decisions of which only 0.0347683 were on extended
We had 1194689 decisions of which only 0.0344023 were on extended
We had 1207501 decisions of which only 0.0340372 were on extended
c Switched to LRB.
We had 1220185 decisions of which only 0.0337654 were on extended
We had 1232510 decisions of which only 0.0334277 were on extended
We had 1244436 decisions of which only 0.0331074 were on extended
We had 1256635 decisions of which only 0.032786 were on extended
We had 1268886 decisions of which only 0.0324694 were on extended
We had 1281267 decisions of which only 0.0321557 were on extended
We had 1293277 decisions of which only 0.0318571 were on extended
We had 1305335 decisions of which only 0.0315628 were on extended
We had 1317744 decisions of which only 0.0312656 were on extended
We had 1330138 decisions of which only 0.0309742 were on extended
We had 1342661 decisions of which only 0.0306853 were on extended
c ===============================================================================
restarts                  : 1630
conflicts                 : 942071         (2542 /sec)
decisions                 : 1345165        (0.00 % random) (3630 /sec)
propagations              : 978992624      (2641669 /sec)
conflict literals         : 26010389       (56.37 % deleted)

conflicts w/ DIP found    : 171682         (18.22 % of conflicts)
conflicts w/ dangerous DIP: 0              (0.00 % of conflicts)
conflicts w/ DIP-learning : 157            (0.02 % of conflicts)
decisions on ext vars     : 412            (0.03 % of decisions)
total ext vars            : 16          
tried delete ext vars     : 0           
deleted ext vars          : 0           
max ext vars              : 16          

Memory used               : 98.00 MB
CPU time                  : 370.596 s
DIP computation time      : 2.04551 s (0.55 % of total time)
ER_sel time               : 1.30835 s
ER_add time               : 0.000167 s
ER_delC time              : 0 s
ER_delV time              : 0 s
ER_sub time               : 0.382829 s
ER_stat time              : 0 s

UNSATISFIABLE
